33D32945 STP File, STP Format Version 1.0

SECTION Comment
Name    "Series C" 
Creator "A. M. Costa" 
Format  "Z.H. Fu and J. K. Hao"
Remark  "Sparse graph with random weights"
#TotalEdgeCost 5550
#BudgetFraction 20
END 

SECTION Graph 
Nodes 500 
Edges 1000 
Root 1
Budget 277
HopLimit 15
E 1 160 3 
E 1 257 10 
E 1 276 5 
E 1 352 3 
E 1 356 2 
E 1 462 5 
E 2 40 2 
E 2 177 4 
E 2 219 9 
E 2 300 9 
E 2 312 5 
E 3 118 7 
E 3 150 1 
E 3 188 3 
E 3 316 3 
E 3 433 1 
E 4 153 4 
E 4 206 8 
E 4 300 3 
E 4 340 1 
E 5 40 2 
E 5 81 8 
E 5 101 5 
E 5 220 9 
E 5 229 8 
E 5 251 1 
E 5 289 8 
E 5 296 7 
E 5 455 3 
E 5 466 2 
E 6 32 7 
E 6 54 1 
E 6 185 6 
E 6 258 5 
E 6 301 5 
E 6 354 4 
E 6 500 2 
E 7 13 10 
E 7 214 5 
E 7 500 3 
E 8 87 10 
E 9 136 2 
E 9 234 5 
E 10 447 8 
E 11 53 7 
E 11 175 3 
E 11 286 7 
E 11 389 8 
E 11 443 10 
E 12 117 5 
E 13 214 9 
E 13 320 7 
E 13 347 7 
E 14 71 7 
E 14 155 5 
E 14 288 7 
E 14 298 2 
E 14 368 9 
E 15 204 3 
E 15 299 2 
E 15 498 10 
E 16 421 10 
E 16 434 2 
E 17 324 6 
E 18 207 5 
E 18 322 1 
E 18 489 5 
E 19 227 3 
E 19 240 7 
E 20 73 7 
E 20 430 6 
E 20 464 6 
E 21 77 2 
E 21 178 2 
E 21 482 7 
E 22 140 2 
E 22 389 2 
E 23 52 9 
E 23 336 9 
E 24 38 5 
E 24 297 1 
E 24 384 9 
E 25 32 4 
E 25 47 5 
E 25 86 4 
E 25 204 10 
E 25 236 1 
E 26 80 5 
E 26 118 5 
E 26 442 6 
E 27 172 7 
E 27 219 2 
E 28 273 2 
E 28 309 5 
E 28 420 6 
E 28 422 4 
E 29 135 7 
E 29 487 4 
E 30 95 3 
E 30 256 3 
E 30 490 5 
E 31 372 9 
E 31 442 10 
E 31 459 6 
E 31 476 8 
E 32 134 3 
E 32 242 3 
E 32 270 1 
E 33 318 5 
E 33 359 9 
E 33 478 6 
E 34 76 6 
E 34 297 7 
E 35 122 3 
E 35 232 10 
E 35 267 2 
E 35 301 5 
E 36 290 10 
E 36 476 9 
E 36 488 9 
E 37 189 3 
E 37 229 9 
E 37 304 3 
E 37 442 3 
E 38 65 8 
E 38 70 8 
E 38 118 4 
E 38 499 5 
E 39 199 3 
E 39 294 8 
E 39 353 3 
E 40 46 4 
E 40 215 10 
E 40 296 8 
E 40 375 1 
E 40 380 6 
E 40 441 9 
E 40 470 9 
E 40 492 9 
E 41 134 8 
E 41 293 5 
E 42 268 10 
E 42 343 6 
E 42 350 1 
E 43 73 9 
E 43 321 1 
E 43 442 8 
E 43 451 5 
E 44 317 3 
E 44 357 4 
E 45 55 4 
E 45 252 7 
E 45 257 1 
E 45 423 1 
E 46 61 9 
E 46 126 4 
E 46 190 2 
E 46 387 5 
E 46 489 7 
E 47 91 5 
E 47 366 10 
E 47 477 5 
E 48 243 3 
E 49 294 8 
E 49 331 7 
E 50 282 7 
E 50 421 3 
E 50 464 6 
E 51 72 3 
E 52 225 4 
E 53 146 6 
E 53 335 5 
E 54 100 5 
E 54 370 2 
E 54 437 10 
E 55 328 5 
E 55 372 1 
E 56 170 3 
E 56 268 7 
E 56 272 3 
E 56 462 4 
E 57 266 8 
E 58 62 10 
E 58 92 5 
E 58 179 3 
E 58 406 2 
E 59 120 1 
E 59 195 7 
E 59 280 10 
E 59 348 8 
E 59 465 2 
E 60 156 6 
E 60 258 6 
E 60 431 7 
E 60 455 3 
E 61 276 1 
E 61 340 3 
E 62 177 4 
E 62 273 10 
E 63 195 5 
E 63 376 10 
E 64 76 3 
E 64 344 9 
E 64 357 6 
E 64 454 6 
E 65 72 4 
E 65 98 3 
E 65 138 7 
E 65 270 6 
E 65 309 7 
E 65 390 1 
E 66 159 1 
E 66 332 8 
E 67 250 4 
E 67 265 9 
E 67 272 6 
E 67 304 8 
E 67 310 1 
E 67 398 7 
E 68 210 2 
E 68 307 5 
E 68 404 10 
E 69 70 3 
E 69 131 9 
E 69 140 4 
E 69 273 9 
E 69 302 3 
E 69 324 2 
E 69 394 8 
E 69 461 8 
E 69 464 5 
E 69 483 3 
E 70 393 10 
E 70 438 9 
E 70 483 4 
E 71 108 8 
E 71 308 6 
E 71 384 3 
E 71 398 5 
E 72 82 1 
E 72 119 1 
E 72 145 4 
E 72 176 6 
E 72 229 10 
E 72 241 6 
E 72 262 8 
E 72 288 5 
E 72 317 5 
E 72 365 7 
E 72 371 3 
E 73 169 10 
E 73 296 3 
E 73 312 6 
E 73 335 3 
E 74 194 3 
E 74 359 2 
E 75 157 2 
E 75 312 3 
E 75 336 8 
E 76 89 3 
E 76 211 7 
E 76 326 1 
E 77 132 4 
E 77 138 10 
E 77 212 6 
E 77 293 6 
E 77 431 10 
E 78 382 5 
E 78 392 8 
E 79 84 10 
E 79 164 10 
E 79 217 2 
E 79 349 1 
E 79 357 5 
E 79 387 3 
E 80 125 7 
E 80 159 1 
E 80 229 6 
E 80 290 6 
E 80 371 2 
E 80 455 5 
E 81 85 10 
E 81 150 10 
E 81 154 1 
E 81 157 1 
E 81 203 1 
E 81 369 10 
E 82 172 3 
E 82 223 5 
E 82 315 5 
E 83 156 8 
E 83 181 2 
E 83 257 2 
E 83 377 2 
E 84 143 3 
E 84 176 1 
E 84 184 10 
E 84 271 10 
E 84 406 5 
E 84 439 5 
E 84 487 2 
E 85 106 8 
E 85 392 5 
E 86 107 4 
E 86 142 7 
E 86 228 10 
E 86 244 5 
E 86 254 7 
E 86 266 3 
E 87 114 4 
E 87 117 5 
E 87 354 2 
E 88 95 3 
E 88 120 10 
E 88 400 3 
E 88 454 5 
E 88 457 6 
E 89 244 8 
E 90 106 10 
E 90 182 3 
E 90 281 7 
E 90 391 1 
E 90 459 9 
E 91 218 7 
E 91 262 5 
E 91 410 9 
E 91 455 8 
E 92 103 2 
E 92 134 4 
E 92 208 4 
E 93 457 9 
E 94 240 8 
E 94 249 6 
E 94 359 8 
E 95 150 7 
E 95 205 9 
E 96 220 7 
E 96 485 2 
E 97 120 3 
E 97 356 8 
E 98 167 10 
E 98 210 7 
E 98 218 5 
E 98 360 9 
E 99 128 3 
E 99 169 4 
E 99 170 9 
E 100 123 4 
E 100 207 6 
E 101 267 10 
E 101 342 9 
E 102 118 9 
E 102 171 3 
E 102 220 8 
E 102 292 3 
E 102 347 3 
E 103 177 5 
E 103 355 9 
E 103 448 3 
E 104 159 4 
E 105 143 6 
E 105 197 4 
E 105 248 2 
E 105 297 7 
E 106 137 4 
E 106 250 8 
E 106 318 9 
E 106 319 3 
E 106 497 1 
E 107 228 5 
E 107 446 7 
E 107 449 8 
E 107 471 9 
E 109 326 5 
E 109 373 5 
E 109 486 4 
E 110 143 6 
E 110 314 4 
E 110 392 3 
E 110 407 6 
E 110 418 5 
E 111 285 2 
E 111 313 2 
E 111 365 9 
E 111 380 5 
E 111 435 8 
E 112 309 4 
E 113 445 6 
E 113 457 9 
E 114 330 5 
E 115 367 5 
E 115 385 8 
E 116 118 6 
E 116 145 6 
E 116 258 9 
E 116 351 7 
E 116 355 10 
E 116 379 5 
E 116 406 9 
E 117 123 8 
E 117 176 2 
E 117 206 10 
E 117 216 9 
E 117 287 7 
E 117 344 6 
E 117 400 4 
E 117 486 2 
E 118 143 6 
E 118 243 6 
E 118 272 6 
E 119 132 10 
E 119 147 7 
E 119 166 2 
E 119 212 8 
E 119 238 3 
E 119 375 7 
E 120 137 6 
E 120 428 3 
E 120 494 8 
E 121 213 5 
E 121 275 5 
E 121 366 9 
E 121 473 3 
E 122 275 4 
E 122 401 6 
E 124 398 1 
E 125 276 6 
E 125 426 6 
E 125 452 7 
E 126 220 4 
E 127 198 2 
E 127 298 5 
E 127 303 9 
E 127 464 10 
E 128 135 6 
E 128 456 4 
E 129 248 7 
E 130 154 6 
E 130 308 6 
E 130 366 4 
E 130 395 3 
E 130 396 1 
E 131 234 9 
E 131 289 8 
E 131 441 6 
E 132 283 4 
E 133 220 6 
E 133 264 2 
E 133 373 9 
E 133 380 5 
E 133 411 2 
E 133 482 5 
E 134 206 10 
E 134 480 8 
E 135 360 4 
E 136 286 4 
E 136 343 8 
E 137 163 5 
E 137 167 8 
E 138 243 1 
E 138 426 6 
E 139 296 1 
E 140 400 9 
E 140 421 3 
E 140 477 10 
E 141 335 7 
E 142 166 10 
E 142 380 4 
E 142 464 4 
E 143 159 10 
E 143 253 9 
E 143 292 10 
E 143 314 6 
E 143 337 8 
E 144 190 10 
E 144 267 4 
E 144 465 10 
E 144 481 10 
E 145 296 3 
E 145 472 10 
E 146 195 3 
E 146 282 8 
E 146 318 2 
E 146 349 2 
E 146 390 2 
E 146 416 6 
E 147 196 1 
E 147 201 9 
E 147 213 4 
E 147 219 3 
E 147 468 10 
E 148 309 6 
E 148 464 5 
E 149 254 2 
E 149 421 9 
E 150 174 5 
E 150 182 5 
E 150 345 5 
E 150 352 3 
E 150 385 10 
E 150 446 8 
E 151 284 9 
E 151 303 6 
E 152 303 3 
E 152 378 4 
E 153 227 4 
E 153 453 3 
E 154 278 2 
E 154 330 6 
E 154 357 3 
E 154 460 9 
E 154 481 5 
E 155 221 5 
E 156 236 7 
E 156 237 6 
E 156 353 6 
E 157 237 7 
E 157 444 4 
E 158 314 3 
E 159 368 7 
E 159 409 1 
E 160 390 6 
E 160 451 10 
E 161 280 8 
E 161 389 6 
E 161 464 1 
E 162 277 3 
E 162 349 6 
E 163 224 4 
E 163 276 4 
E 163 311 1 
E 164 208 3 
E 164 244 7 
E 164 381 8 
E 164 415 6 
E 165 363 6 
E 165 377 4 
E 166 224 4 
E 166 362 7 
E 167 218 5 
E 167 417 5 
E 167 475 2 
E 168 337 8 
E 168 362 6 
E 168 470 2 
E 169 273 8 
E 169 379 9 
E 169 403 10 
E 169 416 8 
E 170 335 6 
E 170 344 4 
E 171 178 2 
E 172 194 10 
E 172 458 2 
E 173 185 6 
E 173 188 9 
E 173 248 4 
E 173 391 10 
E 173 480 3 
E 174 307 4 
E 174 317 6 
E 174 320 1 
E 174 459 4 
E 174 483 7 
E 175 223 8 
E 175 254 5 
E 175 258 7 
E 175 340 6 
E 175 407 1 
E 176 188 4 
E 176 209 8 
E 176 235 1 
E 176 315 6 
E 176 348 9 
E 176 420 7 
E 176 440 7 
E 176 452 5 
E 177 211 2 
E 177 286 10 
E 177 322 5 
E 178 400 2 
E 178 473 6 
E 179 305 9 
E 179 351 3 
E 179 400 10 
E 179 467 10 
E 179 488 6 
E 180 272 6 
E 181 278 6 
E 181 306 5 
E 181 435 8 
E 181 457 10 
E 182 262 1 
E 183 195 10 
E 183 250 3 
E 183 371 5 
E 184 393 1 
E 186 217 7 
E 187 190 1 
E 187 231 9 
E 188 261 3 
E 188 332 5 
E 188 410 6 
E 188 444 7 
E 189 255 7 
E 189 372 1 
E 189 375 2 
E 189 389 6 
E 190 241 5 
E 191 240 7 
E 191 387 1 
E 191 419 6 
E 191 468 4 
E 192 200 4 
E 192 370 2 
E 192 437 4 
E 192 453 10 
E 193 215 6 
E 193 418 1 
E 193 448 5 
E 194 238 2 
E 194 276 2 
E 194 299 6 
E 194 360 2 
E 194 411 2 
E 194 427 9 
E 195 242 5 
E 195 327 10 
E 195 366 10 
E 195 392 4 
E 195 479 10 
E 197 224 10 
E 197 235 9 
E 197 336 1 
E 197 373 4 
E 197 381 1 
E 197 424 2 
E 197 453 6 
E 198 208 3 
E 198 304 10 
E 198 420 6 
E 198 474 10 
E 199 351 6 
E 199 434 1 
E 200 212 5 
E 201 398 3 
E 202 248 7 
E 202 371 7 
E 202 390 9 
E 202 426 6 
E 203 284 5 
E 203 425 9 
E 204 448 7 
E 205 250 7 
E 205 281 2 
E 205 289 7 
E 205 367 8 
E 206 217 5 
E 206 355 4 
E 206 358 2 
E 207 291 5 
E 207 309 5 
E 207 474 9 
E 208 280 10 
E 208 357 9 
E 209 498 10 
E 210 276 1 
E 210 343 9 
E 210 395 10 
E 211 215 3 
E 211 300 4 
E 212 316 5 
E 212 366 7 
E 212 377 7 
E 212 446 4 
E 213 283 6 
E 213 398 7 
E 213 435 10 
E 213 457 3 
E 214 250 3 
E 214 330 8 
E 214 343 5 
E 215 282 5 
E 215 440 8 
E 215 484 6 
E 215 492 7 
E 216 427 4 
E 216 438 10 
E 216 486 5 
E 217 312 4 
E 217 387 10 
E 218 318 2 
E 218 440 2 
E 219 233 10 
E 221 298 5 
E 221 350 8 
E 222 290 4 
E 224 267 10 
E 224 317 10 
E 224 493 8 
E 225 234 7 
E 225 245 4 
E 225 274 2 
E 225 409 6 
E 225 436 5 
E 225 493 8 
E 226 304 4 
E 226 322 6 
E 226 325 8 
E 226 341 7 
E 226 410 3 
E 226 444 9 
E 228 247 1 
E 228 272 10 
E 228 313 5 
E 228 383 5 
E 228 411 4 
E 229 457 8 
E 230 250 8 
E 230 367 1 
E 231 377 6 
E 231 483 8 
E 232 353 2 
E 232 459 10 
E 232 493 3 
E 233 370 1 
E 233 458 3 
E 233 482 4 
E 234 238 8 
E 234 243 6 
E 234 264 2 
E 234 384 6 
E 235 239 2 
E 235 404 2 
E 236 313 9 
E 237 387 9 
E 237 430 10 
E 238 252 3 
E 238 279 9 
E 238 283 4 
E 238 364 9 
E 239 308 4 
E 239 412 10 
E 240 318 5 
E 241 246 5 
E 241 496 1 
E 242 421 3 
E 243 439 6 
E 244 264 3 
E 244 343 10 
E 244 395 9 
E 245 482 10 
E 246 269 3 
E 246 271 10 
E 246 308 6 
E 247 333 1 
E 247 371 10 
E 249 336 9 
E 250 261 3 
E 252 409 4 
E 252 429 7 
E 254 319 7 
E 254 396 8 
E 255 329 1 
E 256 270 6 
E 256 300 1 
E 256 464 8 
E 257 306 10 
E 257 317 6 
E 257 423 5 
E 257 465 1 
E 259 303 9 
E 260 426 4 
E 261 304 9 
E 261 457 7 
E 261 460 7 
E 262 406 3 
E 262 475 3 
E 263 425 9 
E 263 450 5 
E 265 288 6 
E 265 408 5 
E 266 302 3 
E 266 319 3 
E 266 458 8 
E 267 383 2 
E 267 449 10 
E 268 346 10 
E 269 296 3 
E 269 395 8 
E 271 387 1 
E 271 420 4 
E 273 331 4 
E 273 417 8 
E 273 463 1 
E 274 423 7 
E 276 346 1 
E 277 302 7 
E 277 460 1 
E 278 309 5 
E 279 488 3 
E 279 493 8 
E 280 419 7 
E 280 474 7 
E 280 485 4 
E 282 417 10 
E 283 292 10 
E 284 311 1 
E 284 316 6 
E 284 472 7 
E 285 351 6 
E 285 374 7 
E 285 377 9 
E 285 483 2 
E 287 409 8 
E 288 340 1 
E 288 383 8 
E 289 291 10 
E 290 443 4 
E 290 491 10 
E 290 494 10 
E 291 318 2 
E 291 461 7 
E 291 478 8 
E 292 457 4 
E 292 498 8 
E 293 312 2 
E 293 341 5 
E 293 342 1 
E 293 386 3 
E 294 473 7 
E 294 475 2 
E 295 338 8 
E 295 340 1 
E 296 350 10 
E 296 426 3 
E 296 470 10 
E 296 489 2 
E 297 384 9 
E 298 372 8 
E 298 377 3 
E 299 319 5 
E 299 339 8 
E 299 447 9 
E 300 425 5 
E 300 496 10 
E 302 449 7 
E 303 340 8 
E 304 496 1 
E 305 395 2 
E 307 498 4 
E 308 354 9 
E 308 388 4 
E 309 342 3 
E 309 361 8 
E 309 373 7 
E 311 323 9 
E 311 344 1 
E 311 433 6 
E 311 466 3 
E 314 484 1 
E 315 320 7 
E 315 332 10 
E 315 334 7 
E 315 354 1 
E 315 413 9 
E 316 347 5 
E 316 354 7 
E 317 450 4 
E 320 480 5 
E 321 498 1 
E 323 376 2 
E 323 451 9 
E 324 332 5 
E 325 363 6 
E 325 486 8 
E 326 340 5 
E 327 345 6 
E 327 418 3 
E 327 463 2 
E 328 354 7 
E 328 409 3 
E 329 365 4 
E 329 403 1 
E 329 414 3 
E 332 353 5 
E 333 401 8 
E 333 407 4 
E 333 456 7 
E 333 490 5 
E 335 399 7 
E 336 483 10 
E 337 467 8 
E 337 479 8 
E 338 385 9 
E 338 427 3 
E 340 374 5 
E 340 481 9 
E 341 370 5 
E 341 376 7 
E 342 408 5 
E 343 349 4 
E 343 401 1 
E 343 485 6 
E 344 376 9 
E 344 410 2 
E 344 421 3 
E 344 451 5 
E 345 470 3 
E 347 494 5 
E 348 451 9 
E 348 476 10 
E 350 431 2 
E 350 457 3 
E 352 365 9 
E 352 428 5 
E 353 437 9 
E 354 372 5 
E 356 486 7 
E 357 380 2 
E 358 426 1 
E 358 427 3 
E 360 417 8 
E 360 436 10 
E 360 455 10 
E 360 462 5 
E 361 364 2 
E 362 481 4 
E 363 430 4 
E 364 375 4 
E 366 493 3 
E 368 409 1 
E 370 491 6 
E 371 450 1 
E 371 473 3 
E 373 453 9 
E 374 445 1 
E 374 485 1 
E 375 433 9 
E 375 456 6 
E 375 472 2 
E 376 405 9 
E 376 484 4 
E 377 397 6 
E 379 463 1 
E 379 481 10 
E 380 405 2 
E 380 408 5 
E 384 399 4 
E 384 417 3 
E 384 497 5 
E 385 400 3 
E 387 419 9 
E 388 413 4 
E 392 422 7 
E 394 443 3 
E 396 468 2 
E 399 461 3 
E 399 476 7 
E 400 431 9 
E 401 406 2 
E 402 437 6 
E 402 464 8 
E 404 473 10 
E 404 494 3 
E 405 495 6 
E 407 409 8 
E 408 486 2 
E 409 419 7 
E 409 448 6 
E 412 442 10 
E 412 445 10 
E 413 460 4 
E 414 444 8 
E 414 467 2 
E 414 491 8 
E 415 496 1 
E 418 460 10 
E 418 470 5 
E 418 480 3 
E 422 440 5 
E 426 469 10 
E 429 457 3 
E 429 465 4 
E 431 465 6 
E 432 438 6 
E 437 440 6 
E 437 491 9 
E 439 445 6 
E 441 456 6 
E 444 446 8 
E 448 495 4 
E 450 495 8 
E 454 455 7 
E 454 470 10 
E 454 492 9 
E 471 500 5 
E 475 488 3 
E 477 488 5 
E 496 498 7 
END 

SECTION ProfitableVertices 
ProfitableVertices 10 
PV 1 86
PV 21 45
PV 118 97
PV 176 26
PV 199 47
PV 209 32
PV 268 78
PV 341 74
PV 394 54
PV 466 65
END 

EOF 
